100
120
100
99
99
98
98
97
96
94
94
93
93
92
92
90
88
88
87
87
86
86
86
85
85
78
78
77
77
77
74
71
71
68
68
67
66
65
65
62
62
60
59
59
55
55
54
53
52
52
51
51
50
49
49
48
47
46
46
46
45
45
45
42
42
41
41
40
38
36
36
34
33
32
32
32
31
29
27
23
22
22
21
21
20
18
16
15
11
10
10
9
9
8
6
6
5
5
4
3
1
1
